CMD:
./solvers/bin/cadical --plain --no-reduce -t 1600 ./data/cnfs//picorv32-check-p22/picorv32-check-p22.19.cnf

c --- [ banner ] -------------------------------------------------------------
c 
c CaDiCaL SAT Solver
c Copyright (c) 2016-2024
c A. Biere, M. Fleury, N. Froleyks, K. Fazekas, F. Pollitt, T. Faller
c JKU Linz, University of Freiburg, TU Wien
c 
c Version 2.1.3 5296d3d2a9bf48c154ab2acb5e44625776d821bf
c g++ (Gentoo 12.3.1_p20230526 p2) 12.3.1 20230526 -Wall -Wextra -O3 -DNDEBUG
c Sat Aug 9 07:26:21 PDT 2025 Linux cedar2.int.cedar.computecanada.ca 5.14.0-362.24.2.el9_3.x86_64 x86_64
c 
c --- [ limit ] --------------------------------------------------------------
c 
c setting time limit to 1600 seconds real time (due to '-t 1600')
c 
c --- [ parsing input ] ------------------------------------------------------
c 
c reading DIMACS file from './data/cnfs//picorv32-check-p22/picorv32-check-p22.19.cnf'
c opening file to read './data/cnfs//picorv32-check-p22/picorv32-check-p22.19.cnf'
c found 'p cnf 385261 1132498' header
c parsed 1132498 clauses in 0.19 seconds process time
c 
c --- [ options ] ------------------------------------------------------------
c 
c   --compact=false                (different from default 'true')
c   --decompose=false              (different from default 'true')
c   --deduplicate=false            (different from default 'true')
c   --elim=false                   (different from default 'true')
c   --probe=false                  (different from default 'true')
c   --reduce=false                 (different from default 'true')
c   --subsume=false                (different from default 'true')
c   --ternary=false                (different from default 'true')
c   --transred=false               (different from default 'true')
c   --vivify=false                 (different from default 'true')
c 
c --- [ solving ] ------------------------------------------------------------
c 
c time measured in process time since initialization
c 
c  seconds   reductions  redundant   irredundant
c          MB    restarts       trail        variables
c           level   conflicts       glue           remaining
c 
c *  0.19 178  0 0   0    0    0  0% 0 1097928 368649 96%
c {  0.27 183  0 0   0    0    0  0% 0 1097928 368649 96%
c i  0.29 184 46 0   0    9    5 19% 1 1097928 368629 96%
c i  0.31 184 122 0   2   70   50 16% 4 1097928 368623 96%
c i  0.31 184 105 0   2   81   60 15% 4 1097928 368622 96%
c i  0.31 184 102 0   2   83   61 15% 4 1097928 368621 96%
c i  0.33 184 53 0   2  173  140 12% 3 1097928 368620 96%
c i  0.38 184 39 0  21  381  330 13% 3 1097928 368616 96%
c i  0.38 184 39 0  21  382  330 13% 3 1097928 368552 96%
c i  0.40 184 36 0  24  486  423 13% 3 1097928 368551 96%
c i  0.41 184 34 0  32  558  487 12% 3 1097928 368550 96%
c i  0.43 184 33 0  35  606  526 13% 3 1097928 368549 96%
c i  0.43 184 32 0  35  639  555 13% 3 1097928 368548 96%
c i  0.46 184 30 0  38  816  720 13% 3 1097928 368546 96%
c i  0.49 184 28 0  54  962  852 13% 3 1097928 368545 96%
c }  0.49 184 27 0  57 1000  883 13% 3 1097928 368545 96%
c [  0.49 184  0 0  57 1000  883  0% 0 1097928 368545 96%
c O  0.55 185 2464 0  57 1002  885 36% 6 1097928 368545 96%
c i  0.60 185 2852 0  57 1028  909 38% 4 1097928 365849 95%
c i  0.60 185 2576 0  57 1032  909 36% 4 1097928 362826 94%
c 
c  seconds    reductions  redundant   irredundant
c          MB     restarts       trail        variables
c            level   conflicts       glue           remaining
c 
c i  0.83 185 140 0  57 1670 1414 13% 5 1097928 362754 94%
c i  0.86 185 119 0  57 1851 1573 13% 5 1097928 362753 94%
c i  0.87 185 113 0  57 1905 1621 13% 5 1097928 362635 94%
c i  0.96 185 80 0  58 2367 2002 12% 6 1097928 362634 94%
c i  0.99 185 73 0  58 2516 2112 12% 6 1097928 361022 94%
c i  1.01 185 69 0  58 2634 2205 12% 5 1097928 359192 93%
c ]  1.01 185 68 0  58 2649 2210 12% 5 1097928 351299 91%
c 0  1.01 185 68 0  58 2649 2210 12% 5 1097928 351299 91%
c 
c --- [ result ] -------------------------------------------------------------
c 
s UNSATISFIABLE
c 
c --- [ run-time profiling ] -------------------------------------------------
c 
c process time taken by individual solving procedures
c (percentage relative to process time for solving)
c 
c         0.82   99.99% search
c         0.52   62.90% stable
c         0.23   27.81% unstable
c         0.19   22.88% parse
c         0.08    9.26% lucky
c         0.00    0.00% simplify
c   =================================
c         0.82   81.34% solve
c 
c last line shows process time for solving
c (percentage relative to total process time)
c 
c --- [ statistics ] ---------------------------------------------------------
c 
c chronological:               954        36.01 %  of conflicts
c conflicts:                  2649      3214.63    per second
c decisions:                 20266     24593.35    per second
c fixed:                     33764         8.76 %  of all variables
c learned:                    2542        95.96 %  per conflict
c learned_lits:              48193       100.00 %  learned literals
c minimized:                     0         0.00 %  learned literals
c shrunken:                  13294        27.58 %  learned literals
c minishrunken:               8427        17.49 %  learned literals
c otfs:                         56         2.11 %  of conflict
c propagations:           13620095        16.53 M  per second
c rephased:                      1      2649.00    interval
c restarts:                     58        45.67    interval
c stabilizing:                   1        62.25 %  of conflicts
c subsumed:                    310         0.03 %  of all clauses
c strengthened:                 56         0.01 %  of all clauses
c 
c seconds are measured in process time for solving
c 
c --- [ resources ] ----------------------------------------------------------
c 
c total process time since initialization:         1.01    seconds
c total real time since initialization:            1.02    seconds
c maximum resident set size of process:          183.93    MB
c 
c --- [ shutting down ] ------------------------------------------------------
c 
c exit 20
